clingo version 4.5.4
Reading from ...ral_files/31328/executable_program.asp ...
Solving...
UNSATISFIABLE

Models       : 0     
Calls        : 1
Time         : 63.482s (Solving: 28.26s 1st Model: 0.00s Unsat: 28.26s)
CPU Time     : 63.480s
